param TOT_LAYERS := 3;  # Total Number of layers in the ANN
param N_NODES := 3 4 1;  # Number of nodes for each layer
param ANN_WEIGTHS :=
                     1   0.8833753671488407 0.7190316092125968 -0.8012210099400827 -0.9337459398646157 0.3128481901951432 -0.505537591035476 -0.24566141047142254 -0.2532496491734135 -0.1813484564176242 0.0319121352843299 0.10612222090992063 -0.8773149096253128
                     2   -0.5824790455214994 0.7219562666061432 0.3899201830624246 -0.020982407210575094 ;
end;
